c Example CNF DICMACS file (Dec 2015)
c Source: http://www.cs.ubc.ca/~hoos/SATLIB/benchm.html
c Note comment lines, each starting with 'c'
c Note problem statement p cnf #vars #clauses
c Note problems delimited by '0' NOT newline
c Note This sample problem is (x1 or x3 or ~x4) and (x4) and (x2 or ~x3)
p cnf 4 3
1 3 -4 0
4 0
2 -3 0